Route #1: 132 83 109 78 87 74 50 38
Route #2: 40 95 100 128 76 17 19 130
Route #3: 118 91 14 58 60 34 41 105
Route #4: 122 11 114 131 52 101 116 129
Route #5: 125 127 31 92 29 85 12 124
Route #6: 115 80 82 133 33 86 72 3 103
Route #7: 26 35 54 110 123 32 62 10
Route #8: 56 24 37 88 45 21 46 99
Route #9: 89 113 25 59 18 73 39 2
Route #10: 112 64 48 117 49 69 1 61 71
Route #11: 119 57 106 104 111 120 79 43 36
Route #12: 51 16 47 9 96 13 97 5 77 53 66 6
Route #13: 90 108 93 94 102 42 65 98 44 107 84 8 30 68 81 15 63 7 121 23 70 4
Route #14: 27 22 55 126 20 67 75 28
cost: 12793
